scenarios/sols/small/emicp_milp/019.sol
objective value:                     1.20534075393955
x(0,4,0)                                            1 	(obj:0)
x(1,4,1)                                            1 	(obj:0)
x(2,11,1)                                           1 	(obj:0)
x(3,10,0)                                           1 	(obj:0)
x(4,6,1)                                            1 	(obj:0)
x(4,9,0)                                            1 	(obj:0)
x(6,2,1)                                            1 	(obj:0)
x(9,3,0)                                            1 	(obj:0)
x(10,0,0)                                           1 	(obj:0)
x(11,1,1)                                           1 	(obj:0)
xc(0,3)                                             1 	(obj:0)
xc(3,4)                                             1 	(obj:0)
xc(4,0)                                             1 	(obj:0)
u(2,1)                               1.01597666609385 	(obj:0)
u(3,0)                               1.11562521364123 	(obj:0)
u(4,0)                              0.218786827747265 	(obj:0)
u(4,1)                              0.380090691955679 	(obj:0)
u(6,1)                               0.50246230694491 	(obj:0)
u(9,0)                              0.747193594425815 	(obj:0)
u(10,0)                              1.20534075393955 	(obj:0)
u(10,1)                             0.563979202453446 	(obj:0)
u(11,0)                             0.507503206365801 	(obj:0)
u(11,1)                              1.20534075393955 	(obj:0)
u(12,0)                             0.563979202453446 	(obj:0)
u(12,1)                              0.18899724676972 	(obj:0)
u(13,0)                            0.0883175857122502 	(obj:0)
u(13,1)                             0.563979202453446 	(obj:0)
u(14,0)                              0.16576129410954 	(obj:0)
u(14,1)                              0.37122283123848 	(obj:0)
u(15,0)                             0.563979202453446 	(obj:0)
u(15,1)                              0.22325407437169 	(obj:0)
u(16,0)                             0.253979870922521 	(obj:0)
u(16,1)                             0.324150271303241 	(obj:0)
u(17,0)                             0.309114326738271 	(obj:0)
u(17,1)                             0.563979202453446 	(obj:0)
u(18,0)                             0.563979202453446 	(obj:0)
u(18,1)                              0.20954263088511 	(obj:0)
u(19,0)                             0.456747288680591 	(obj:0)
u(19,1)                             0.563979202453446 	(obj:0)
f(0,3,1)                                            1 	(obj:0)
f(0,3,2)                                            1 	(obj:0)
f(0,3,4)                                            1 	(obj:0)
f(0,4,0)                                            1 	(obj:0)
f(1,4,1)                                            1 	(obj:0)
f(1,4,2)                                            1 	(obj:0)
f(2,11,2)                                           1 	(obj:0)
f(3,4,1)                                            1 	(obj:0)
f(3,4,2)                                            1 	(obj:0)
f(3,4,3)                                            1 	(obj:0)
f(3,4,4)                                            1 	(obj:0)
f(4,0,1)                                            1 	(obj:0)
f(4,0,2)                                            1 	(obj:0)
f(4,0,4)                                            1 	(obj:0)
f(4,9,0)                                            1 	(obj:0)
f(4,9,1)                                            1 	(obj:0)
f(4,9,2)                                            1 	(obj:0)
f(4,9,3)                                            1 	(obj:0)
f(4,9,4)                                            1 	(obj:0)
f(11,1,2)                                           1 	(obj:0)
z_r(0,)                              1.20534075393955 	(obj:0)
z_r(1,)                              1.20534075393955 	(obj:0)
z                                    1.20534075393955 	(obj:1)
