scenarios/sols/small/emicp_milp/019.out
b'The following solver is parallelized by UG version 0.9.1 [GitHash: ]\n'
b'SCIP version 7.0.2 [precision: 8 byte] [memory: block] [mode: optimized] [LP solver: SoPlex 5.0.2] [GitHash: e9d280a398]\n'
b'Copyright (C) 2002-2020 Konrad-Zuse-Zentrum fuer Informationstechnik Berlin (ZIB)\n'
b'External codes: \n'
b'  Readline 7.0         GNU library for command line editing (gnu.org/s/readline)\n'
b'  SoPlex 5.0.2         Linear Programming Solver developed at Zuse Institute Berlin (soplex.zib.de) [GitHash: e24c304e]\n'
b'  CppAD 20180000.0     Algorithmic Differentiation of C++ algorithms developed by B. Bell (www.coin-or.org/CppAD)\n'
b'  ZLIB 1.2.11          General purpose compression library by J. Gailly and M. Adler (zlib.net)\n'
b'  GMP 6.1.2            GNU Multiple Precision Arithmetic Library developed by T. Granlund (gmplib.org)\n'
b'  ZIMPL 3.4.0          Zuse Institute Mathematical Programming Language developed by T. Koch (zimpl.zib.de)\n'
b'Default LC presolving (default).\n'
b'Original Problem   :\n'
b'  Problem name     : 019\n'
b'  Variables        : 5320 (1200 binary, 0 integer, 0 implicit integer, 4120 continuous)\n'
b'  Constraints      : 13876\n'
b'  Objective sense  : minimize\n'
b'Presolved Problem  :\n'
b'  Variables        : 788 (202 binary, 0 integer, 0 implicit integer, 586 continuous)\n'
b'  Constraints      : 891\n'
b'Constraints        : Number\n'
b'  varbound         : 155 \n'
b'  knapsack         : 6 \n'
b'  setppc           : 46 \n'
b'  linear           : 682 \n'
b'  logicor          : 2 \n'
b'** Instance transfer method used: 0\n'
b'** ParaScipInstance copy does not increase the number of variables. **\n'
b'LC is working with racing ramp-up and with rebuilding tree after racing.\n'
b'                               Nodes    Active                                            \n'
b'     Time          Nodes        Left   Solvers     Best Integer        Best Node       Gap     Best Node(S)    Gap(S)\n'
b'*       0              0           1         8           1.8860                -         -\n'
b'*       2            150         133         8           1.5425           0.5640   173.50%\n'
b'Racing ramp-up finished after 2.77 seconds. Selected strategy 3.\n'
b'        5           2583        1579         8           1.5425           0.5640    173.50%           0.5640    173.50%\n'
b'       10          15351        6171         8           1.5425           0.5640    173.50%           0.5640    173.50%\n'
b'       15          30267        8940         8           1.5425           0.5640    173.50%           0.5640    173.50%\n'
b'       20          47265       10759         8           1.5425           0.5640    173.50%           0.5640    173.50%\n'
b'       25          64123       12170         8           1.5425           0.5640    173.50%           0.5640    173.50%\n'
b'       30          79726       13888         8           1.5425           0.5640    173.50%           0.5640    173.50%\n'
b'       36          96422       15813         8           1.5425           0.5640    173.50%           0.5640    173.50%\n'
b'       41         113616       17565         8           1.5425           0.5640    173.50%           0.5640    173.50%\n'
b'       46         131467       18818         8           1.5425           0.5640    173.50%           0.5640    173.50%\n'
b'       51         148516       20070         8           1.5425           0.5640    173.50%           0.5640    173.50%\n'
b'       56         166460       21031         8           1.5425           0.5640    173.50%           0.5640    173.50%\n'
b'       61         182840       22520         8           1.5425           0.5640    173.50%           0.5640    173.50%\n'
b'       66         200179       23528         8           1.5425           0.5640    173.50%           0.5640    173.50%\n'
b'       71         217975       24046         8           1.5425           0.5640    173.50%           0.5640    173.50%\n'
b'       76         235913       23747         8           1.5425           0.5640    173.50%           0.5640    173.50%\n'
b'       81         252954       24123         8           1.5425           0.5640    173.50%           0.5640    173.50%\n'
b'       86         271413       24477         8           1.5425           0.5640    173.50%           0.5640    173.50%\n'
b'       91         289496       25124         8           1.5425           0.5640    173.50%           0.5640    173.50%\n'
b'       96         307014       25639         8           1.5425           0.5640    173.50%           0.5640    173.50%\n'
b'      101         321739       27046         8           1.5425           0.5640    173.50%           0.5640    173.50%\n'
b'      106         338392       27081         8           1.5425           0.5640    173.50%           0.5640    173.50%\n'
b'      112         355690       27651         8           1.5425           0.5640    173.50%           0.5640    173.50%\n'
b'      117         373072       27699         8           1.5425           0.5640    173.50%           0.5640    173.50%\n'
b'      122         391601       27701         8           1.5425           0.5640    173.50%           0.5640    173.50%\n'
b'      127         408963       27395         8           1.5425           0.5640    173.50%           0.5640    173.50%\n'
b'      132         425514       27620         8           1.5425           0.5640    173.50%           0.5640    173.50%\n'
b'      137         443445       27227         8           1.5425           0.5640    173.50%           0.5640    173.50%\n'
b'      142         459890       27127         8           1.5425           0.5640    173.50%           0.5640    173.50%\n'
b'      147         477721       26805         8           1.5425           0.5640    173.50%           0.5640    173.50%\n'
b'      152         493483       27809         8           1.5425           0.5640    173.50%           0.5640    173.50%\n'
b'      157         511987       28448         8           1.5425           0.5640    173.50%           0.5640    173.50%\n'
b'      162         530251       28309         8           1.5425           0.5640    173.50%           0.5640    173.50%\n'
b'      167         549634       28179         8           1.5425           0.5640    173.50%           0.5640    173.50%\n'
b'      172         569690       28241         8           1.5425           0.5640    173.50%           0.5640    173.50%\n'
b'      177         589861       28238         8           1.5425           0.5640    173.50%           0.5640    173.50%\n'
b'      182         607889       28437         8           1.5425           0.5640    173.50%           0.5640    173.50%\n'
b'      187         625098       29295         8           1.5425           0.5640    173.50%           0.5640    173.50%\n'
b'      193         644412       29649         8           1.5425           0.5640    173.50%           0.5640    173.50%\n'
b'      198         662613       29891         8           1.5425           0.5640    173.50%           0.5640    173.50%\n'
b'      203         679740       30815         8           1.5425           0.5640    173.50%           0.5640    173.50%\n'
b'*     203         679740       30814         8           1.4190           0.5640    151.61%           0.5640    151.61%\n'
b'      208         700574       30233         8           1.4190           0.5640    151.61%           0.5640    151.61%\n'
b'      213         722276       30069         8           1.4190           0.5640    151.61%           0.5640    151.61%\n'
b'*     215         730483       30276         8           1.2641           0.5640    124.14%           0.5640    124.14%\n'
b'*     215         731447       30230         8           1.2053           0.5640    113.72%           0.5640    113.72%\n'
b'      218         743989       28573         8           1.2053           0.5640    113.72%           0.5640    113.72%\n'
b'      223         764123       27611         8           1.2053           0.5640    113.72%           0.5640    113.72%\n'
b'      228         786616       25078         8           1.2053           0.5640    113.72%           0.5640    113.72%\n'
b'      233         804923       23845         8           1.2053           0.5640    113.72%           0.5640    113.72%\n'
b'      238         824949       23678         8           1.2053           0.5640    113.72%           0.5640    113.72%\n'
b'      243         844875       23447         8           1.2053           0.5640    113.72%           0.5640    113.72%\n'
b'      248         862638       22468         8           1.2053           0.5640    113.72%           0.5640    113.72%\n'
b'      253         871887       22195         8           1.2053           0.5640    113.72%           0.5640    113.72%\n'
b'      258         881568       21518         8           1.2053           0.5640    113.72%           0.5640    113.72%\n'
b'      263         892732       21380         8           1.2053           0.5640    113.72%           0.5640    113.72%\n'
b'      268         903524       21035         8           1.2053           0.5640    113.72%           0.5640    113.72%\n'
b'      274         915261       20396         8           1.2053           0.5640    113.72%           0.5640    113.72%\n'
b'      279         925324       20104         8           1.2053           0.5640    113.72%           0.5640    113.72%\n'
b'      284         935420       19622         8           1.2053           0.5655    113.13%           0.5655    113.13%\n'
b'      289         944541       19312         8           1.2053           0.5897    104.41%           0.5897    104.41%\n'
b'      294         954276       18943         8           1.2053           0.6010    100.57%           0.6010    100.57%\n'
b'      299         962595       18490         8           1.2053           0.6105     97.43%           0.6105     97.43%\n'
b'      304         972102       17958         8           1.2053           0.6216     93.91%           0.6216     93.91%\n'
b'      309         982449       17187         8           1.2053           0.6565     83.59%           0.6565     83.59%\n'
b'      314         992655       16434         8           1.2053           0.6791     77.49%           0.6791     77.49%\n'
b'      319        1001627       15172         8           1.2053           0.6840     76.23%           0.6869     75.48%\n'
b'      324        1009114       14561         8           1.2053           0.7033     71.37%           0.7033     71.37%\n'
b'      329        1017021       13779         8           1.2053           0.7137     68.88%           0.7139     68.84%\n'
b'      334        1025093       12878         8           1.2053           0.7430     62.23%           0.7430     62.23%\n'
b'      339        1035883       12112         8           1.2053           0.7760     55.33%           0.7794     54.66%\n'
b'      344        1046967       11171         8           1.2053           0.8069     49.38%           0.8069     49.38%\n'
b'      349        1058818        9983         8           1.2053           0.8523     41.43%           0.8549     40.99%\n'
b'      354        1067437        8782         8           1.2053           0.9159     31.60%           0.9178     31.33%\n'
b'      359        1075376        7894         8           1.2053           0.9833     22.58%           0.9833     22.58%\n'
b'      364        1081816        6117         8           1.2053           1.0792     11.69%           1.0818     11.42%\n'
b'      369        1088543        4292         8           1.2053           1.1626      3.67%           1.1693      3.08%\n'
b'      372        1090919           0         0           1.2053           1.2053      0.00%\n'
b'SCIP Status        : problem is solved\n'
b'Total Time         : 371.54\n'
b'  solving          : 371.54\n'
b'  presolving       : 0.05 (included in solving)\n'
b'B&B Tree           :\n'
b'  nodes (total)    : 1090919\n'
b'Solution           :\n'
b'  Solutions found  : 5\n'
b'  Primal Bound     : +1.20534075393955e+00\n'
b'  Dual Bound       : +1.20534075393955e+00\n'
b'Gap                : 0.00000 %\n'
